20181210 89300.00 89300.00
20171204 89400.00 87300.00
20171106 89406.84 87027.96
20170307 89406.84 85295.35
20170303 89491.52 85295.35
20161205 89491.52 72257.03
20161124 89491.52 72020.20
20161107 89418.86 72020.20
20160608 89418.86 70287.59
20160303 44709.43 35143.80
